p cnf 18 57
1 4 7 10 13 16 0
2 5 8 11 14 17 0
3 6 9 12 15 18 0
-1 -2 0
-1 -3 0
-2 -3 0
-4 -5 0
-4 -6 0
-5 -6 0
-7 -8 0
-7 -9 0
-8 -9 0
-10 -11 0
-10 -12 0
-11 -12 0
-13 -14 0
-13 -15 0
-14 -15 0
-16 -17 0
-16 -18 0
-17 -18 0
-1 -14 0
-1 -15 0
-2 -13 0
-2 -15 0
-3 -13 0
-3 -14 0
-1 -17 0
-1 -18 0
-2 -16 0
-2 -18 0
-3 -16 0
-3 -17 0
-4 -11 0
-4 -12 0
-5 -10 0
-5 -12 0
-6 -10 0
-6 -11 0
-4 -14 0
-4 -15 0
-5 -13 0
-5 -15 0
-6 -13 0
-6 -14 0
-7 -11 0
-7 -12 0
-8 -10 0
-8 -12 0
-9 -10 0
-9 -11 0
-10 -17 0
-10 -18 0
-11 -16 0
-11 -18 0
-12 -16 0
-12 -17 0
